10	5
0	5	4	2	3	5	1
1	2	6	7
2	1	10
3	2	6	7
4	1	8
5	1	8
6	2	4	10
7	0
8	2	10	9
9	1	11
10	1	11
11	0
0	0	0	0	0	0	0
1	9	0	5	3	3	0
2	3	1	4	3	0	1
3	10	0	4	0	4	3
4	1	0	4	2	3	0
5	6	0	2	0	3	1
6	7	5	1	5	1	0
7	7	3	4	1	5	1
8	5	2	5	3	4	5
9	5	0	0	3	2	4
10	7	3	5	5	5	4
11	0	0	0	0	0	0
5	5	5	5	5
